data/benchmarks/bayes/75-10-3-q.cnf
p cnf 460 459
c weights 0.254629 0.745371 1 1 1 1 1 1 1 1 1 1 1 1 1 1 1 1 1 1 1 1 1 1 1 1 1 1 1 1 1 1 1 1 1 1 1 1 1 1 1 1 1 1 1 1 1 1 1 1 1 1 1 1 1 1 1 1 1 1 1 1 1 1 1 1 1 1 1 1 1 1 1 1 1 1 1 1 1 1 1 1 1 1 1 1 1 1 1 1 1 1 1 1 1 1 1 1 1 1 1 1 1 1 1 1 1 1 1 1 1 1 1 1 1 1 1 1 1 1 1 1 1 1 1 1 1 1 1 1 1 1 1 1 1 1 1 1 1 1 1 1 1 1 1 1 1 1 1 1 1 1 1 1 1 1 1 1 1 1 1 1 1 1 1 1 1 1 1 1 1 1 1 1 1 1 1 1 1 1 1 1 1 1 1 1 1 1 1 1 1 1 1 1 1 1 1 1 1 1 0.5 0.5 0.5 0.5 0.152819 0.847181 0.215284 0.784716 0.5 0.5 0.5 0.5 0.446143 0.553857 0.671162 0.32883799999999996 0.5 0.5 0.5 0.5 0.5 0.5 0.5 0.5 0.5 0.5 0.5 0.5 0.295764 0.704236 0.831881 0.16811900000000002 0.5 0.5 0.5 0.5 0.5 0.5 0.5 0.5 0.5 0.5 0.5 0.5 0.5 0.5 0.5 0.5 0.0652917 0.9347083 0.518936 0.48106400000000005 0.356149 0.643851 0.026068 0.973932 0.5 0.5 0.5 0.5 0.5 0.5 0.5 0.5 0.5 0.5 0.5 0.5 0.5 0.5 0.5 0.5 0.5 0.5 0.5 0.5 0.5 0.5 0.5 0.5 0.5 0.5 0.5 0.5 0.5 0.5 0.5 0.5 0.5 0.5 0.5 0.5 0.5 0.5 0.5 0.5 0.5 0.5 0.5 0.5 0.5 0.5 0.5 0.5 0.5 0.5 0.5 0.5 0.5 0.5 0.5 0.5 0.5 0.5 0.5 0.5 0.56824 0.43176000000000003 0.741658 0.25834199999999996 0.724448 0.275552 0.991732 0.008268000000000053 0.0592295 0.9407705 0.746223 0.25377700000000003 0.920025 0.07997500000000002 0.689775 0.310225 0.5 0.5 0.5 0.5 0.5 0.5 0.5 0.5 0.5 0.5 0.5 0.5 0.5 0.5 0.5 0.5 0.5 0.5 0.5 0.5 0.5 0.5 0.5 0.5 0.5 0.5 0.5 0.5 0.5 0.5 0.5 0.5 0.677023 0.32297699999999996 0.542593 0.457407 0.697795 0.30220499999999995 0.401471 0.598529 0.5 0.5 0.5 0.5 0.5 0.5 0.5 0.5 0.5 0.5 0.5 0.5 0.5 0.5 0.5 0.5 0.5 0.5 0.5 0.5 0.226983 0.7730170000000001 0.70441 0.29559 0.171487 0.828513 0.497923 0.502077 0.5 0.5 0.5 0.5 0.5 0.5 0.5 0.5 0.866888 0.133112 0.00204671 0.99795329 0.912831 0.08716900000000005 0.823025 0.176975 0.5 0.5 0.5 0.5 0.5 0.5 0.5 0.5 0.5 0.5 0.5 0.5 0.5 0.5 0.5 0.5 0.778871 0.22112900000000002 0.550326 0.449674 0.687963 0.312037 0.175335 0.824665 0.5 0.5 0.5 0.5 0.5 0.5 0.5 0.5 0.5 0.5 0.5 0.5 0.5 0.5 0.5 0.5 0.5 0.5 0.5 0.5 0.5 0.5 0.5 0.5 0.500051 0.499949 0.841464 0.158536 0.636911 0.363089 0.382704 0.6172960000000001 0.0324526 0.9675474 0.309836 0.690164 0.5 0.5 0.5 0.5 0.5 0.5 0.5 0.5 0.5 0.5 0.5 0.5 0.5 0.5 0.5 0.5 0.5 0.5 0.5 0.5 0.5 0.5 0.5 0.5 0.5 0.5 0.5 0.5 0.5 0.5 0.5 0.5 0.525815 0.47418499999999997 0.646482 0.353518 0.612689 0.38731099999999996 0.287971 0.712029 0.5 0.5 0.5 0.5 0.5 0.5 0.5 0.5 0.5 0.5 0.5 0.5 0.5 0.5 0.5 0.5 0.5 0.5 0.5 0.5 0.5 0.5 0.5 0.5 0.5 0.5 0.5 0.5 0.5 0.5 0.5 0.5 0.5 0.5 0.5 0.5 0.401052 0.598948 0.353783 0.646217 0.549479 0.45052099999999995 0.926868 0.07313199999999997 0.5 0.5 0.5 0.5 0.5 0.5 0.5 0.5 0.5 0.5 0.5 0.5 0.5 0.5 0.5 0.5 0.611754 0.388246 0.5048 0.4952 0.794241 0.20575900000000003 0.646284 0.35371600000000003 0.5 0.5 0.5 0.5 0.5 0.5 0.5 0.5 0.5 0.5 0.5 0.5 0.5 0.5 0.5 0.5 0.5 0.5 0.5 0.5 0.5 0.5 0.5 0.5 0.5 0.5 0.5 0.5 0.5 0.5 0.5 0.5 0.232959 0.767041 0.892966 0.10703399999999996 0.5 0.5 0.5 0.5 0.5 0.5 0.5 0.5 0.835621 0.16437900000000005 0.262576 0.7374240000000001 0.0737267 0.9262733 0.937338 0.062662 0.369806 0.6301939999999999 0.06821 0.93179 0.376385 0.623615 0.877101 0.12289899999999998 0.5 0.5 0.5 0.5 0.5 0.5 0.5 0.5 0.5 0.5 0.5 0.5 0.5 0.5 0.5 0.5 0.768587 0.23141299999999998 0.0982638 0.9017362 0.842788 0.15721200000000002 0.00154513 0.99845487 0.962235 0.03776500000000005 0.00608281 0.99391719 0.443018 0.556982 0.00361507 0.99638493 0.5 0.5 0.5 0.5 0.5 0.5 0.5 0.5 0.784679 0.21532099999999998 0.843139 0.15686100000000003 0.844785 0.155215 0.161064 0.838936 0.5 0.5 0.5 0.5 0.75228 0.24772000000000005 0.701623 0.298377 0.42592 0.5740799999999999 0.340311 0.659689 0.5 0.5 0.5 0.5 0.5 0.5 0.5 0.5 0.5 0.5 0.5 0.5 0.5 0.5 0.5 0.5 0.5 0.5 0.5 0.5 0.5 0.5 0.5 0.5 0.5 0.5 0.5 0.5 0.5 0.5 0.5 0.5 0.5 0.5 0.5 0.5 0.5 0.5 0.5 0.5 0.422544 0.577456 0.854678 0.14532199999999995 0.647711 0.35228899999999996 0.848463 0.15153700000000003 0.5 0.5 0.5 0.5 0.5 0.5 0.5 0.5 0.5 0.5 0.5 0.5 0.5 0.5 0.5 0.5 0.5 0.5 0.5 0.5 0.5 0.5 0.5 0.5 0.5 0.5 0.5 0.5 0.5 0.5 0.5 0.5 0.5 0.5 0.5 0.5 0.438453 0.561547 0.779163 0.22083699999999995 0.0429057 0.9570943 0.384541 0.615459 0.5 0.5 0.5 0.5 0.5 0.5 0.5 0.5 0.5 0.5 0.5 0.5 0.5 0.5 0.5 0.5 0.5 0.5 0.5 0.5 0.5 0.5 0.5 0.5 0.5 0.5 0.5 0.5 0.5 0.5 0.5 0.5 0.937614 0.06238600000000005 0.230556 0.769444 0.447399 0.552601 0.513995 0.486005 0.5 0.5 0.5 0.5 0.5 0.5 0.5 0.5 0.5 0.5 0.5 0.5 0.5 0.5 0.5 0.5 0.5 0.5 0.5 0.5 0.119734 0.880266 0.664603 0.33539699999999995 0.565209 0.43479100000000004 0.604477 0.39552299999999996 0.5 0.5 0.5 0.5 0.5 0.5 0.5 0.5 0.5 0.5 0.5 0.5 0.5 0.5 0.5 0.5 0.5 0.5 0.5 0.5 0.5 0.5 0.5 0.5 0.551149 0.448851 0.9828 0.017199999999999993 0.234077 0.765923 0.888138 0.11186200000000002 0.5 0.5 0.5 0.5 0.5 0.5 0.5 0.5 0.5 0.5 0.5 0.5 0.5 0.5 0.5 0.5 0.5 0.5 0.5 0.5 0.5 0.5 0.5 0.5
-1 2 0
1 -2 0
-2 -103 3 0
-2 103 -3 0
2 -104 3 0
2 104 -3 0
-3 4 0
3 -4 0
-4 -107 5 0
-4 107 -5 0
4 -108 5 0
4 108 -5 0
-5 6 0
5 -6 0
-6 -7 0
6 7 0
-7 -8 0
7 8 0
-8 -115 9 0
-8 115 -9 0
8 -116 9 0
8 116 -9 0
-9 10 0
9 -10 0
-1 -11 0
1 11 0
-11 -2 -12 0
-11 2 -12 0
11 -2 12 0
11 2 -12 0
-12 -3 -125 13 0
-12 -3 125 -13 0
-12 3 -126 13 0
-12 3 126 -13 0
12 -3 -127 13 0
12 -3 127 -13 0
12 3 -128 13 0
12 3 128 -13 0
-13 -4 -14 0
-13 4 -14 0
13 -4 -14 0
13 4 14 0
-14 -5 -15 0
-14 5 15 0
14 -5 -15 0
14 5 -15 0
-15 -6 -16 0
-15 6 16 0
15 -6 16 0
15 6 16 0
-16 -7 -17 0
-16 7 -17 0
16 -7 17 0
16 7 -17 0
-17 -8 18 0
-17 8 -18 0
17 -8 18 0
17 8 18 0
-18 -9 -19 0
-18 9 19 0
18 -9 -19 0
18 9 -19 0
-19 -10 20 0
-19 10 -20 0
19 -10 -20 0
19 10 -20 0
-11 21 0
11 -21 0
-21 -12 -159 22 0
-21 -12 159 -22 0
-21 12 -160 22 0
-21 12 160 -22 0
21 -12 -161 22 0
21 -12 161 -22 0
21 12 -162 22 0
21 12 162 -22 0
-22 -13 -163 23 0
-22 -13 163 -23 0
-22 13 -164 23 0
-22 13 164 -23 0
22 -13 -165 23 0
22 -13 165 -23 0
22 13 -166 23 0
22 13 166 -23 0
-23 -14 24 0
-23 14 24 0
23 -14 24 0
23 14 -24 0
-24 -15 25 0
-24 15 25 0
24 -15 -25 0
24 15 -25 0
-25 -16 26 0
-25 16 -26 0
25 -16 -26 0
25 16 26 0
-26 -17 -27 0
-26 17 27 0
26 -17 27 0
26 17 -27 0
-27 -18 -183 28 0
-27 -18 183 -28 0
-27 18 -184 28 0
-27 18 184 -28 0
27 -18 -185 28 0
27 -18 185 -28 0
27 18 -186 28 0
27 18 186 -28 0
-28 -19 -29 0
-28 19 -29 0
28 -19 -29 0
28 19 29 0
-29 -20 30 0
-29 20 -30 0
29 -20 -30 0
29 20 30 0
-21 31 0
21 -31 0
-31 -22 -197 32 0
-31 -22 197 -32 0
-31 22 -198 32 0
-31 22 198 -32 0
31 -22 -199 32 0
31 -22 199 -32 0
31 22 -200 32 0
31 22 200 -32 0
-32 -23 -33 0
-32 23 -33 0
32 -23 33 0
32 23 -33 0
-33 -24 -205 34 0
-33 -24 205 -34 0
-33 24 -206 34 0
-33 24 206 -34 0
33 -24 -207 34 0
33 -24 207 -34 0
33 24 -208 34 0
33 24 208 -34 0
-34 -25 35 0
-34 25 -35 0
34 -25 -35 0
34 25 -35 0
-35 -26 -36 0
-35 26 -36 0
35 -26 -36 0
35 26 36 0
-36 -27 -217 37 0
-36 -27 217 -37 0
-36 27 -218 37 0
-36 27 218 -37 0
36 -27 -219 37 0
36 -27 219 -37 0
36 27 -220 37 0
36 27 220 -37 0
-37 -28 38 0
-37 28 -38 0
37 -28 38 0
37 28 38 0
-38 -29 -39 0
-38 29 -39 0
38 -29 -39 0
38 29 39 0
-39 -30 40 0
-39 30 -40 0
39 -30 40 0
39 30 40 0
-31 -233 41 0
-31 233 -41 0
31 -234 41 0
31 234 -41 0
-41 -32 -235 42 0
-41 -32 235 -42 0
-41 32 -236 42 0
-41 32 236 -42 0
41 -32 -237 42 0
41 -32 237 -42 0
41 32 -238 42 0
41 32 238 -42 0
-42 -33 43 0
-42 33 43 0
42 -33 43 0
42 33 -43 0
-43 -34 -44 0
-43 34 44 0
43 -34 -44 0
43 34 -44 0
-44 -35 -45 0
-44 35 45 0
44 -35 45 0
44 35 -45 0
-45 -36 -46 0
-45 36 46 0
45 -36 -46 0
45 36 46 0
-46 -37 -255 47 0
-46 -37 255 -47 0
-46 37 -256 47 0
-46 37 256 -47 0
46 -37 -257 47 0
46 -37 257 -47 0
46 37 -258 47 0
46 37 258 -47 0
-47 -38 48 0
-47 38 48 0
47 -38 -48 0
47 38 48 0
-48 -39 49 0
-48 39 49 0
48 -39 49 0
48 39 -49 0
-49 -40 50 0
-49 40 50 0
49 -40 -50 0
49 40 50 0
-41 -51 0
41 51 0
-51 -42 -52 0
-51 42 -52 0
51 -42 52 0
51 42 -52 0
-52 -43 -277 53 0
-52 -43 277 -53 0
-52 43 -278 53 0
-52 43 278 -53 0
52 -43 -279 53 0
52 -43 279 -53 0
52 43 -280 53 0
52 43 280 -53 0
-53 -44 54 0
-53 44 54 0
53 -44 54 0
53 44 -54 0
-54 -45 55 0
-54 45 -55 0
54 -45 -55 0
54 45 55 0
-55 -46 -289 56 0
-55 -46 289 -56 0
-55 46 -290 56 0
-55 46 290 -56 0
55 -46 -291 56 0
55 -46 291 -56 0
55 46 -292 56 0
55 46 292 -56 0
-56 -47 -57 0
-56 47 57 0
56 -47 57 0
56 47 57 0
-57 -48 -58 0
-57 48 58 0
57 -48 58 0
57 48 58 0
-58 -49 59 0
-58 49 -59 0
58 -49 -59 0
58 49 59 0
-59 -50 60 0
-59 50 -60 0
59 -50 60 0
59 50 60 0
-51 -309 61 0
-51 309 -61 0
51 -310 61 0
51 310 -61 0
-61 -52 62 0
-61 52 62 0
61 -52 -62 0
61 52 -62 0
-62 -53 -315 63 0
-62 -53 315 -63 0
-62 53 -316 63 0
-62 53 316 -63 0
62 -53 -317 63 0
62 -53 317 -63 0
62 53 -318 63 0
62 53 318 -63 0
-63 -54 -319 64 0
-63 -54 319 -64 0
-63 54 -320 64 0
-63 54 320 -64 0
63 -54 -321 64 0
63 -54 321 -64 0
63 54 -322 64 0
63 54 322 -64 0
-64 -55 -65 0
-64 55 65 0
64 -55 65 0
64 55 65 0
-65 -56 66 0
-65 56 -66 0
65 -56 -66 0
65 56 66 0
-66 -57 -331 67 0
-66 -57 331 -67 0
-66 57 -332 67 0
-66 57 332 -67 0
66 -57 -333 67 0
66 -57 333 -67 0
66 57 -334 67 0
66 57 334 -67 0
-67 -58 -335 68 0
-67 -58 335 -68 0
-67 58 -336 68 0
-67 58 336 -68 0
67 -58 -337 68 0
67 -58 337 -68 0
67 58 -338 68 0
67 58 338 -68 0
-68 -59 -69 0
-68 59 -69 0
68 -59 69 0
68 59 69 0
-69 -60 -343 70 0
-69 -60 343 -70 0
-69 60 -344 70 0
-69 60 344 -70 0
69 -60 -345 70 0
69 -60 345 -70 0
69 60 -346 70 0
69 60 346 -70 0
-61 71 0
61 -71 0
-71 -62 -349 72 0
-71 -62 349 -72 0
-71 62 -350 72 0
-71 62 350 -72 0
71 -62 -351 72 0
71 -62 351 -72 0
71 62 -352 72 0
71 62 352 -72 0
-72 -63 -73 0
-72 63 73 0
72 -63 73 0
72 63 73 0
-73 -64 74 0
-73 64 74 0
73 -64 -74 0
73 64 74 0
-74 -65 75 0
-74 65 -75 0
74 -65 75 0
74 65 75 0
-75 -66 -76 0
-75 66 -76 0
75 -66 76 0
75 66 -76 0
-76 -67 77 0
-76 67 -77 0
76 -67 77 0
76 67 77 0
-77 -68 -373 78 0
-77 -68 373 -78 0
-77 68 -374 78 0
-77 68 374 -78 0
77 -68 -375 78 0
77 -68 375 -78 0
77 68 -376 78 0
77 68 376 -78 0
-78 -69 -79 0
-78 69 -79 0
78 -69 79 0
78 69 79 0
-79 -70 -80 0
-79 70 -80 0
79 -70 80 0
79 70 -80 0
-71 -81 0
71 81 0
-81 -72 82 0
-81 72 82 0
81 -72 82 0
81 72 -82 0
-82 -73 83 0
-82 73 83 0
82 -73 -83 0
82 73 83 0
-83 -74 -395 84 0
-83 -74 395 -84 0
-83 74 -396 84 0
-83 74 396 -84 0
83 -74 -397 84 0
83 -74 397 -84 0
83 74 -398 84 0
83 74 398 -84 0
-84 -75 -85 0
-84 75 85 0
84 -75 -85 0
84 75 -85 0
-85 -76 86 0
-85 76 86 0
85 -76 -86 0
85 76 86 0
-86 -77 -87 0
-86 77 -87 0
86 -77 -87 0
86 77 87 0
-87 -78 -88 0
-87 78 88 0
87 -78 -88 0
87 78 88 0
-88 -79 -415 89 0
-88 -79 415 -89 0
-88 79 -416 89 0
-88 79 416 -89 0
88 -79 -417 89 0
88 -79 417 -89 0
88 79 -418 89 0
88 79 418 -89 0
-89 -80 90 0
-89 80 90 0
89 -80 -90 0
89 80 -90 0
-81 -91 0
81 91 0
-91 -82 -92 0
-91 82 92 0
91 -82 -92 0
91 82 -92 0
-92 -83 -429 93 0
-92 -83 429 -93 0
-92 83 -430 93 0
-92 83 430 -93 0
92 -83 -431 93 0
92 -83 431 -93 0
92 83 -432 93 0
92 83 432 -93 0
-93 -84 94 0
-93 84 94 0
93 -84 -94 0
93 84 -94 0
-94 -85 95 0
-94 85 -95 0
94 -85 -95 0
94 85 -95 0
-95 -86 96 0
-95 86 96 0
95 -86 96 0
95 86 -96 0
-96 -87 -445 97 0
-96 -87 445 -97 0
-96 87 -446 97 0
-96 87 446 -97 0
96 -87 -447 97 0
96 -87 447 -97 0
96 87 -448 97 0
96 87 448 -97 0
-97 -88 98 0
-97 88 -98 0
97 -88 -98 0
97 88 98 0
-98 -89 -99 0
-98 89 99 0
98 -89 -99 0
98 89 99 0
-99 -90 100 0
-99 90 -100 0
99 -90 -100 0
99 90 -100 0
100 0
