data/benchmarks/bayes/75-10-3-q.gr
p tw 460 545
66 332
7 17
67 68
99 100
67 77
83 430
84 395
8 9
67 333
8 18
40 50
22 163
41 42
63 317
52 280
73 74
41 51
25 34
77 373
73 83
14 15
14 24
74 75
36 219
74 84
15 16
83 398
47 48
15 25
12 127
47 57
59 68
42 235
48 49
93 429
48 58
80 90
31 234
32 199
58 337
69 346
81 82
33 42
81 91
8 116
28 183
54 321
22 23
84 93
22 32
62 352
21 162
66 75
46 255
55 56
66 331
7 16
55 65
58 67
40 49
22 162
68 376
52 279
24 208
89 417
73 82
32 41
14 23
79 418
51 310
65 74
83 397
55 289
27 218
47 56
6 15
31 197
3 126
21 22
21 31
80 89
39 48
32 198
58 336
54 55
69 345
96 448
54 64
62 315
54 320
37 258
87 88
92 432
87 97
21 161
28 29
28 38
3 103
88 89
88 98
29 30
41 233
61 62
93 432
61 71
2 3
2 12
62 63
37 217
94 95
89 416
3 4
35 36
35 45
95 96
51 309
72 350
36 37
68 69
27 217
68 78
74 396
3 125
57 334
69 70
41 237
13 166
78 375
69 79
34 207
58 335
96 447
54 63
13 22
60 344
43 44
54 319
43 53
92 431
27 185
87 96
46 55
76 77
12 160
28 37
55 292
76 86
79 88
31 200
68 338
87 446
20 29
71 349
2 11
53 62
43 277
35 44
53 318
47 256
9 10
72 349
86 95
9 19
23 164
68 77
27 36
74 395
33 205
42 43
57 333
42 52
41 236
13 165
78 374
34 206
60 69
88 415
75 76
96 446
37 220
75 85
16 17
60 343
16 26
92 430
27 184
64 322
46 292
49 50
49 59
12 159
82 83
82 92
87 445
22 199
23 24
23 33
83 84
18 183
24 25
56 57
56 66
53 317
2 104
47 255
57 58
89 90
89 99
23 163
13 128
67 337
30 40
78 373
63 321
31 32
34 205
32 235
71 352
34 43
56 290
64 65
64 321
5 6
67 76
46 291
83 429
97 98
67 332
8 17
33 208
70 346
63 316
82 91
9 116
22 198
88 418
97 448
53 280
36 218
74 83
56 65
15 24
12 126
53 316
84 398
89 98
13 127
67 336
48 57
22 166
31 233
63 64
63 73
63 320
4 5
4 14
77 376
8 115
22 31
62 351
37 38
56 289
37 47
4 108
55 64
42 238
70 80
29 39
67 331
11 12
22 161
11 21
70 345
68 375
5 108
63 315
52 278
24 207
62 72
44 45
44 54
32 238
97 447
3 13
28 186
53 279
79 417
36 217
46 258
83 396
36 46
96 97
12 125
66 334
18 19
18 28
83 432
84 397
67 335
22 165
32 197
10 20
69 344
63 319
77 375
37 257
62 350
21 160
85 86
4 107
88 97
42 237
77 78
29 38
77 87
93 431
22 160
68 374
52 277
24 206
62 71
89 415
62 318
51 52
97 446
3 12
28 185
51 61
53 278
79 416
46 257
83 395
36 45
66 333
69 78
10 19
69 343
25 26
25 35
43 52
37 256
21 159
17 18
17 27
55 291
27 220
76 85
42 236
31 199
3 128
68 337
50 60
77 86
93 430
32 200
58 338
68 373
83 93
24 205
62 317
24 34
28 184
54 322
84 85
84 94
9 18
57 67
58 59
57 332
58 68
42 51
41 235
13 164
90 100
31 41
91 92
96 445
37 219
75 84
89 418
32 33
32 42
16 25
43 280
64 74
37 255
92 429
27 183
5 15
65 66
17 26
72 352
65 75
49 58
55 290
27 219
6 7
6 16
74 398
31 198
3 127
68 336
50 59
98 99
39 40
39 49
23 32
83 92
62 316
72 73
60 346
24 33
72 82
2 103
57 66
12 162
3 104
30 39
57 331
41 234
13 163
90 99
61 310
87 448
71 351
37 218
18 186
43 279
64 73
64 320
38 39
47 258
5 14
46 290
38 48
72 351
23 166
74 397
33 207
71 72
68 335
71 81
41 238
78 376
12 13
9 115
22 197
12 22
34 208
88 417
13 14
45 46
13 23
45 55
60 345
72 81
53 315
27 186
46 47
78 79
46 56
78 88
12 161
13 126
19 20
19 29
79 80
79 89
63 72
52 53
61 309
20 30
4 13
87 447
52 62
71 350
53 54
18 185
53 63
37 46
85 95
43 278
26 27
64 319
26 36
47 257
86 87
46 289
38 47
86 96
70 79
23 165
27 28
27 37
33 206
70 344
5 107
12 21
60 70
44 53
88 416
32 237
1 2
1 11
93 94
45 54
56 292
18 27
78 87
84 396
83 431
13 125
67 334
19 28
22 164
63 318
22 200
77 374
52 61
62 349
18 184
36 220
85 94
12 128
59 60
26 35
59 69
67 338
22 159
92 93
70 343
33 34
63 322
33 43
32 236
97 445
53 277
34 35
79 415
66 67
34 44
66 76
56 291
46 256
7 8
